Traveling Salesman Problem/TSP_generados/Aleatorio1621103854_18.tsp
NAME: Aleatorio1621103854_18.tsp
COMMENT: Randomly generated scenario
TYPE: TSP
DIMENSION: 18
EDGE_WEIGHT_TYPE: ATT
NODE_COORD_SECTION
1 1.99 10.85
2 26.84 4.44
3 6.14 1.89
4 9.18 29.88
5 48.24 31.39
6 33.31 19.17
7 4.79 45.68
8 28.48 45.23
9 26.61 31.01
10 27.42 6.65
11 18.67 36.6
12 21.99 1.15
13 11.06 42.36
14 5.91 25.87
15 17.29 36.43
16 3.66 6.69
17 19.6 15.55
18 44.24 49.39
