Traveling Salesman Problem/TSP_generados/Aleatorio1621103854_18.opt.tour
NAME: Aleatorio1621103854_18.opt.tour
COMMENT: Optimal solution for Aleatorio1621103854_18 (192.19269536319652)
TYPE: TOUR
DIMENSION: 18
TOUR_SECTION
1 14 4 7 13 15 11 9 8 18 5 6 17 10 2 12 3 16
-1
EOF
